
Gurobi 9.0.3 (win64, Java) logging started Fri Feb 19 02:45:27 2021


--------------------------------------------
Warning: your license will expire in 13 days
--------------------------------------------

Academic license - for non-commercial use only
